1 1 2 0
1 -1 -3 0
1 -1 4 0
1 -2 -1 0
1 -2 4 0
1 2 5 0
1 -6 -7 0
1 -6 8 0
1 -6 -9 0
1 6 -10 0
1 -6 -11 0
1 -6 -4 0
1 6 5 0
1 -12 7 0
1 -12 8 0
1 -12 -3 0
1 -12 10 0
1 -12 11 0
1 -12 -6 0
1 -12 4 0
1 -12 5 0
1 -9 13 0
1 -9 -14 0
1 9 15 0
1 -9 -12 0
1 9 -2 0
1 -9 16 0
1 -9 -17 0
1 9 -18 0
1 9 -19 0
1 9 6 0
1 9 -1 0
1 9 -5 0
1 5 -20 0
1 -5 13 0
1 5 -12 0
1 5 -2 0
1 5 9 0
1 -5 -17 0
1 -5 -18 0
1 5 19 0
1 -5 6 0
1 -5 -1 0
1 3 13 0
1 -3 21 0
1 -3 22 0
1 3 12 0
1 3 -2 0
1 -3 -23 0
1 -3 17 0
1 -3 -24 0
1 -3 -1 0
1 -3 4 0
1 -4 -13 0
1 -4 -21 0
1 -4 -22 0
1 -4 -12 0
1 -4 -2 0
1 4 3 0
1 -4 17 0
1 -4 -24 0
1 -4 25 0
1 4 -26 0
1 -19 7 0
1 19 8 0
1 19 15 0
1 -19 9 0
1 19 10 0
1 19 11 0
1 19 -25 0
1 -19 5 0
1 -15 7 0
1 -15 -8 0
1 -15 -22 0
1 -15 -9 0
1 15 10 0
1 15 -5 0
1 18 -7 0
1 -18 -8 0
1 -18 14 0
1 18 27 0
1 18 -28 0
1 -18 -9 0
1 18 -11 0
1 18 29 0
1 18 -24 0
1 18 -30 0
1 -18 5 0
1 14 7 0
1 14 8 0
1 -14 27 0
1 14 21 0
1 14 28 0
1 -14 10 0
1 -14 11 0
1 -14 18 0
1 14 -29 0
1 14 -5 0
1 11 31 0
1 -11 -32 0
1 -11 -8 0
1 11 -15 0
1 11 12 0
1 -11 -33 0
1 11 34 0
1 -11 -18 0
1 -11 19 0
1 -11 6 0
1 -8 -31 0
1 8 -32 0
1 8 -14 0
1 8 15 0
1 -8 12 0
1 8 34 0
1 -8 -35 0
1 8 18 0
1 -8 19 0
1 -8 -6 0
1 -8 36 0
1 10 7 0
1 -10 37 0
1 -10 13 0
1 10 -14 0
1 -10 12 0
1 10 -33 0
1 -10 -17 0
1 10 -18 0
1 -10 19 0
1 -7 -37 0
1 -7 -13 0
1 7 -15 0
1 -7 -12 0
1 -7 -33 0
1 7 10 0
1 -7 38 0
1 -7 -17 0
1 -7 -18 0
1 -7 -19 0
1 -7 6 0
1 35 32 0
1 35 8 0
1 35 28 0
1 -35 -11 0
1 -35 -17 0
1 -35 -29 0
1 32 -8 0
1 -32 -27 0
1 -32 28 0
1 -32 35 0
1 -32 11 0
1 32 29 0
1 -32 -30 0
1 34 -31 0
1 34 8 0
1 -34 -27 0
1 -34 -28 0
1 -34 -38 0
1 34 11 0
1 34 -29 0
1 34 -30 0
1 31 -37 0
1 -31 27 0
1 -31 28 0
1 -31 34 0
1 -31 -29 0
1 31 30 0
1 -30 31 0
1 -30 32 0
1 30 28 0
1 -30 -35 0
1 -28 -31 0
1 -28 32 0
1 28 -14 0
1 -28 35 0
1 28 -18 0
1 28 -30 0
1 -29 -32 0
1 -29 -14 0
1 29 -27 0
1 -29 -39 0
1 -29 33 0
1 -29 35 0
1 29 40 0
1 29 -36 0
1 27 -31 0
1 -27 32 0
1 -27 39 0
1 -27 -33 0
1 -27 -34 0
1 -27 35 0
1 -27 18 0
1 -27 29 0
1 -27 -40 0
1 27 36 0
1 -25 22 0
1 25 41 0
1 25 -3 0
1 -25 -42 0
1 -25 43 0
1 25 19 0
1 -25 -4 0
1 -22 -44 0
1 22 -15 0
1 22 41 0
1 22 3 0
1 -22 42 0
1 22 -25 0
1 -22 4 0
1 -24 21 0
1 24 -44 0
1 -24 41 0
1 24 45 0
1 24 3 0
1 -24 -42 0
1 24 -18 0
1 -24 43 0
1 -24 46 0
1 24 -47 0
1 -24 -4 0
1 -21 14 0
1 -21 -44 0
1 -21 41 0
1 21 -48 0
1 21 -3 0
1 -21 -24 0
1 -21 -46 0
1 21 -47 0
1 -21 -4 0
1 41 -43 0
1 -41 -37 0
1 -41 22 0
1 41 38 0
1 -41 17 0
1 -41 25 0
1 43 37 0
1 43 13 0
1 -43 -21 0
1 -43 41 0
1 43 -17 0
1 -43 24 0
1 43 -25 0
1 44 21 0
1 -44 -22 0
1 -44 42 0
1 44 24 0
1 -42 21 0
1 -42 44 0
1 42 -25 0
1 -17 45 0
1 -17 3 0
1 17 -9 0
1 -17 35 0
1 17 43 0
1 -17 -46 0
1 17 -47 0
1 17 4 0
1 17 -5 0
1 13 32 0
1 13 -45 0
1 -13 48 0
1 -13 46 0
1 -13 -47 0
1 13 -5 0
1 38 -20 0
1 38 -7 0
1 -38 -37 0
1 38 41 0
1 38 45 0
1 -38 48 0
1 38 23 0
1 -38 16 0
1 -38 10 0
1 -38 43 0
1 -38 -46 0
1 -38 -47 0
1 38 26 0
1 -37 -20 0
1 37 31 0
1 -37 -7 0
1 -37 41 0
1 37 -48 0
1 -37 -16 0
1 37 -43 0
1 -37 46 0
1 -37 -47 0
1 -37 26 0
1 -48 37 0
1 48 13 0
1 48 -21 0
1 48 39 0
1 48 -33 0
1 -48 38 0
1 -48 17 0
1 48 -47 0
1 -48 40 0
1 48 36 0
1 47 -37 0
1 47 -13 0
1 -47 -21 0
1 47 -48 0
1 -47 -39 0
1 47 -33 0
1 47 38 0
1 -47 -17 0
1 47 24 0
1 47 -40 0
1 -45 37 0
1 45 -21 0
1 -45 -38 0
1 -45 17 0
1 -45 24 0
1 -45 46 0
1 -46 -37 0
1 46 -13 0
1 46 -21 0
1 -46 45 0
1 -46 38 0
1 46 -17 0
1 -46 24 0
1 33 -8 0
1 33 -27 0
1 -33 -48 0
1 -33 23 0
1 -33 -16 0
1 -33 11 0
1 33 -29 0
1 33 -47 0
1 -33 -26 0
1 -33 -36 0
1 36 -7 0
1 36 -20 0
1 -36 -27 0
1 -36 -23 0
1 36 33 0
1 -36 16 0
1 36 10 0
1 -36 11 0
1 -36 29 0
1 36 47 0
1 -36 26 0
1 -39 -27 0
1 39 -48 0
1 39 16 0
1 -39 29 0
1 -39 47 0
1 39 -40 0
1 -39 -26 0
1 40 -20 0
1 40 -27 0
1 40 48 0
1 40 -39 0
1 40 -23 0
1 40 -16 0
1 -40 29 0
1 -40 26 0
1 40 47 0
1 16 20 0
1 -16 37 0
1 -16 39 0
1 -16 9 0
1 -16 38 0
1 -16 40 0
1 -16 -36 0
1 20 -37 0
1 20 39 0
1 20 -16 0
1 -20 38 0
1 -20 5 0
1 20 -40 0
1 -23 -37 0
1 23 -39 0
1 23 -3 0
1 -23 38 0
1 23 -40 0
1 23 -26 0
1 -23 36 0
1 -26 39 0
1 -26 33 0
1 26 -38 0
1 -26 -4 0
1 -26 -40 0
1 -26 36 0
